
n_res = 8;
rcap = [78, 80, 91, 84, 1689, 1554, 1503, 1529];
rtype = [1, 1, 1, 1, 2, 2, 2, 2];
n_tasks = 100;
modes =  [{1, 2, 3}, {4, 5, 6}, {7, 8, 9}, {10, 11, 12}, {13, 14, 15}, {16, 17, 18}, {19, 20, 21}, {22, 23, 24}, {25, 26, 27}, {28, 29, 30}, {31, 32, 33}, {34, 35, 36}, {37, 38, 39}, {40, 41, 42}, {43, 44, 45}, {46, 47, 48}, {49, 50, 51}, {52, 53, 54}, {55, 56, 57}, {58, 59, 60}, {61, 62, 63}, {64, 65, 66}, {67, 68, 69}, {70, 71, 72}, {73, 74, 75}, {76, 77, 78}, {79, 80, 81}, {82, 83, 84}, {85, 86, 87}, {88, 89, 90}, {91, 92, 93}, {94, 95, 96}, {97, 98, 99}, {100, 101, 102}, {103, 104, 105}, {106, 107, 108}, {109, 110, 111}, {112, 113, 114}, {115, 116, 117}, {118, 119, 120}, {121, 122, 123}, {124, 125, 126}, {127, 128, 129}, {130, 131, 132}, {133, 134, 135}, {136, 137, 138}, {139, 140, 141}, {142, 143, 144}, {145, 146, 147}, {148, 149, 150}, {151, 152, 153}, {154, 155, 156}, {157, 158, 159}, {160, 161, 162}, {163, 164, 165}, {166, 167, 168}, {169, 170, 171}, {172, 173, 174}, {175, 176, 177}, {178, 179, 180}, {181, 182, 183}, {184, 185, 186}, {187, 188, 189}, {190, 191, 192}, {193, 194, 195}, {196, 197, 198}, {199, 200, 201}, {202, 203, 204}, {205, 206, 207}, {208, 209, 210}, {211, 212, 213}, {214, 215, 216}, {217, 218, 219}, {220, 221, 222}, {223, 224, 225}, {226, 227, 228}, {229, 230, 231}, {232, 233, 234}, {235, 236, 237}, {238, 239, 240}, {241, 242, 243}, {244, 245, 246}, {247, 248, 249}, {250, 251, 252}, {253, 254, 255}, {256, 257, 258}, {259, 260, 261}, {262, 263, 264}, {265, 266, 267}, {268, 269, 270}, {271, 272, 273}, {274, 275, 276}, {277, 278, 279}, {280, 281, 282}, {283, 284, 285}, {286, 287, 288}, {289, 290, 291}, {292, 293, 294}, {295, 296, 297}, {298, 299, 300}];
succ =  [{26, 25, 21, 20, 14, 11, 10}, {32, 25, 15, 14, 11, 7}, {20, 19, 15, 14, 10}, {26, 25, 14, 11, 10}, {32, 27, 26, 24, 22, 21, 20, 17, 16, 14}, {32, 27, 24, 21, 20, 17, 15}, {27, 26, 24, 23, 22, 21, 18, 16}, {32, 26, 25, 16, 12}, {32, 27, 24, 22, 20, 17}, {32, 27, 17, 12}, {30, 27, 24, 22, 17}, {33, 31, 30, 29, 24, 23, 22}, {35, 33, 30, 26, 25, 24, 23}, {31, 30, 23, 18}, {38, 33, 30, 29, 23, 22}, {42, 38, 36, 35, 30, 29, 28}, {38, 36, 33, 31, 29, 28}, {42, 41, 35, 33, 29, 28}, {38, 35, 34, 28, 26}, {44, 35, 30, 23}, {35, 31, 29, 28}, {51, 48, 44, 43, 41, 39, 35, 34}, {36, 34, 28}, {38, 34, 28}, {34, 28}, {51, 48, 45, 44, 43, 42, 41, 37}, {51, 48, 43, 35, 34}, {51, 48, 47, 45, 43, 39, 37}, {51, 44, 43, 39, 34}, {51, 48, 47, 45, 43, 41, 40}, {51, 48, 47, 43, 42, 41, 40}, {48, 45, 44, 36}, {51, 48, 45, 43, 37}, {47, 45, 40}, {45, 37}, {51, 37}, {49, 40}, {49, 40}, {57, 55, 53, 52, 49, 46}, {57, 55, 53, 52, 46}, {66, 58, 57, 53, 46}, {58, 53, 52, 46}, {57, 53, 46}, {67, 66, 63, 62, 61, 58, 57, 56, 55, 54}, {67, 63, 62, 60, 59, 56, 55, 54}, {62, 60, 56, 54, 50}, {63, 61, 54, 49}, {67, 63, 62, 61, 60, 56, 54}, {83, 79, 67, 66, 65, 62, 58, 56}, {83, 78, 76, 72, 70, 69, 68, 67, 65, 63, 59}, {87, 83, 74, 71, 70, 68, 67, 66, 65, 63, 60}, {72, 71, 67, 66, 64, 63, 61, 54}, {83, 79, 76, 74, 69, 65, 56}, {100, 87, 83, 82, 79, 76, 75, 74, 69, 65}, {83, 82, 79, 78, 75, 74, 70, 69, 65}, {82, 78, 75, 73, 72, 71, 68, 64}, {87, 82, 78, 76, 75, 74, 73, 69}, {87, 74, 69, 60}, {87, 61}, {95, 84, 82, 81, 78, 76, 75}, {100, 99, 84, 82, 77, 75, 74, 73}, {99, 84, 82, 80, 78, 77, 74, 73}, {99, 96, 95, 81, 79, 77, 75}, {100, 95, 94, 92, 87, 86, 85, 84, 80, 77}, {99, 95, 84, 77, 73}, {80, 69}, {100, 99, 98, 95, 94, 93, 92, 86, 85, 82, 80}, {95, 94, 93, 86, 85, 84, 81, 80}, {95, 94, 93, 91, 86, 85, 84, 81}, {95, 94, 91, 86, 85, 84, 81}, {99, 97, 95, 94, 93, 92, 80}, {95, 92, 86, 85, 84, 80}, {97, 96, 94, 93, 92, 91, 90, 89, 85}, {95, 94, 93, 91, 90, 89, 86, 85}, {94, 92, 86, 85, 80}, {99, 77}, {98, 93, 90, 89, 88}, {100, 92, 89, 85}, {80}, {91, 90, 89, 88}, {97, 92, 90, 89}, {91, 90, 89, 88}, {93, 89, 85}, {96, 89, 88}, {88}, {88}, {91}, {}, {}, {}, {}, {}, {}, {}, {}, {}, {}, {}, {}, {}];
n_opt = 300;
dur = [16, 17, 30, 1, 17, 19, 14, 15, 21, 19, 23, 28, 4, 16, 23, 3, 13, 15, 1, 3, 10, 3, 22, 23, 5, 26, 28, 2, 3, 28, 1, 11, 25, 14, 20, 23, 1, 15, 30, 10, 11, 27, 3, 16, 17, 1, 22, 30, 2, 3, 26, 16, 22, 27, 15, 16, 17, 12, 21, 23, 4, 6, 10, 4, 9, 19, 16, 18, 21, 2, 12, 25, 1, 29, 30, 11, 12, 24, 12, 21, 25, 1, 5, 17, 10, 20, 24, 15, 21, 27, 3, 18, 21, 4, 19, 23, 2, 27, 30, 4, 17, 26, 3, 7, 8, 1, 5, 30, 19, 20, 23, 5, 13, 26, 1, 7, 12, 7, 11, 13, 10, 15, 19, 6, 8, 28, 14, 26, 29, 4, 9, 26, 1, 13, 20, 12, 14, 15, 12, 18, 25, 17, 25, 30, 1, 9, 10, 3, 12, 25, 4, 14, 15, 2, 13, 27, 17, 23, 27, 3, 25, 28, 15, 24, 25, 9, 10, 14, 2, 23, 29, 25, 29, 30, 5, 8, 27, 8, 16, 19, 7, 17, 30, 9, 18, 20, 1, 5, 9, 3, 5, 13, 4, 5, 17, 5, 8, 15, 15, 21, 24, 3, 11, 23, 9, 19, 30, 3, 13, 28, 11, 15, 22, 2, 3, 23, 5, 11, 12, 4, 10, 14, 4, 29, 30, 4, 26, 28, 3, 16, 29, 8, 23, 25, 11, 15, 19, 3, 13, 17, 3, 27, 29, 1, 2, 28, 22, 24, 25, 1, 7, 14, 11, 20, 26, 7, 25, 28, 6, 25, 26, 7, 13, 23, 17, 22, 26, 5, 24, 28, 12, 15, 28, 1, 3, 5, 8, 23, 25, 9, 11, 28, 2, 3, 11, 1, 20, 27, 1, 17, 26, 10, 21, 22, 6, 15, 25, 1, 9, 29];
rreq = [|17, 15, 13, 20, 20, 20, 20, 17, 16, 11, 9, 5, 14, 14, 14, 15, 14, 12, 19, 19, 19, 8, 6, 6, 21, 20, 17, 14, 12, 11, 23, 19, 18, 16, 14, 5, 24, 20, 15, 26, 24, 24, 21, 17, 16, 9, 4, 3, 21, 21, 14, 19, 19, 18, 26, 24, 19, 16, 15, 15, 12, 6, 5, 26, 25, 25, 17, 14, 11, 21, 17, 15, 12, 12, 12, 5, 4, 1, 27, 25, 23, 5, 5, 2, 15, 11, 6, 22, 18, 13, 22, 20, 18, 8, 8, 5, 28, 25, 25, 12, 10, 6, 24, 20, 10, 25, 19, 9, 7, 5, 3, 22, 18, 16, 17, 16, 12, 26, 19, 17, 13, 9, 5, 8, 4, 3, 14, 13, 11, 25, 22, 18, 24, 15, 10, 17, 14, 8, 25, 21, 20, 25, 22, 19, 15, 10, 9, 25, 23, 18, 9, 8, 6, 16, 11, 6, 19, 14, 7, 2, 2, 2, 11, 8, 6, 12, 11, 10, 26, 24, 24, 22, 20, 18, 16, 16, 13, 27, 27, 27, 11, 7, 4, 27, 25, 17, 29, 26, 24, 20, 19, 17, 6, 2, 2, 18, 10, 8, 9, 7, 4, 22, 19, 13, 27, 21, 14, 26, 13, 3, 14, 14, 11, 21, 18, 10, 3, 3, 2, 14, 8, 7, 2, 1, 1, 29, 25, 25, 26, 21, 17, 19, 15, 12, 17, 11, 8, 12, 9, 5, 18, 17, 15, 17, 12, 9, 26, 17, 8, 22, 19, 9, 9, 6, 4, 17, 12, 7, 23, 17, 13, 26, 24, 19, 23, 20, 14, 15, 12, 12, 30, 21, 10, 19, 16, 14, 15, 14, 13, 15, 13, 6, 23, 16, 10, 9, 6, 3, 11, 6, 4, 10, 10, 9, 20, 18, 18, 18, 16, 9
 |25, 22, 21, 14, 14, 12, 18, 15, 8, 17, 15, 4, 21, 21, 4, 15, 14, 13, 18, 14, 11, 18, 18, 18, 26, 11, 9, 20, 12, 7, 25, 23, 16, 13, 9, 6, 17, 14, 12, 8, 4, 4, 22, 17, 8, 23, 20, 18, 25, 22, 14, 13, 11, 10, 16, 15, 8, 14, 8, 6, 14, 12, 10, 27, 24, 19, 24, 19, 17, 19, 15, 12, 18, 12, 11, 28, 28, 28, 25, 21, 20, 16, 11, 9, 14, 13, 4, 25, 19, 13, 28, 25, 21, 19, 12, 1, 24, 22, 20, 9, 8, 8, 16, 14, 6, 29, 15, 4, 24, 13, 11, 26, 25, 25, 24, 19, 12, 24, 14, 11, 8, 5, 4, 18, 10, 1, 24, 16, 13, 21, 16, 13, 21, 17, 15, 16, 11, 10, 13, 10, 7, 21, 17, 11, 27, 23, 17, 19, 9, 3, 21, 15, 6, 19, 17, 17, 15, 13, 13, 22, 22, 21, 12, 11, 4, 23, 23, 21, 14, 7, 7, 12, 10, 9, 18, 14, 11, 24, 20, 16, 19, 18, 18, 23, 13, 5, 24, 21, 16, 11, 9, 7, 23, 21, 19, 16, 13, 6, 14, 10, 9, 8, 6, 4, 19, 10, 2, 26, 24, 19, 25, 24, 23, 23, 22, 15, 17, 10, 7, 17, 14, 8, 26, 23, 18, 12, 12, 8, 15, 15, 15, 20, 17, 15, 12, 7, 5, 27, 16, 8, 6, 6, 5, 16, 16, 16, 29, 21, 14, 26, 19, 15, 12, 10, 5, 20, 19, 7, 23, 23, 23, 21, 20, 16, 20, 19, 18, 23, 16, 11, 8, 7, 4, 25, 19, 17, 24, 17, 13, 19, 13, 10, 14, 13, 12, 25, 22, 20, 24, 15, 13, 28, 23, 15, 19, 14, 10, 21, 18, 4
 |24, 19, 17, 10, 9, 4, 20, 16, 13, 24, 17, 10, 15, 11, 8, 30, 16, 8, 26, 26, 26, 20, 15, 7, 22, 20, 15, 21, 15, 13, 8, 6, 4, 19, 17, 17, 25, 18, 9, 24, 18, 5, 21, 12, 3, 18, 11, 8, 13, 10, 7, 26, 25, 23, 14, 13, 13, 11, 9, 6, 20, 17, 8, 17, 13, 11, 27, 23, 14, 18, 18, 17, 15, 10, 4, 26, 15, 11, 23, 13, 10, 22, 15, 14, 23, 21, 15, 25, 23, 22, 11, 9, 8, 8, 7, 6, 13, 10, 9, 15, 11, 5, 16, 13, 1, 19, 8, 3, 25, 20, 10, 20, 10, 1, 12, 11, 9, 20, 19, 16, 21, 19, 12, 25, 17, 4, 12, 12, 11, 17, 9, 7, 29, 27, 26, 23, 23, 18, 11, 11, 10, 8, 7, 7, 11, 9, 8, 12, 4, 1, 18, 17, 17, 17, 13, 6, 17, 14, 13, 6, 5, 2, 29, 27, 27, 19, 16, 11, 9, 5, 3, 17, 16, 6, 28, 16, 13, 10, 6, 5, 25, 23, 22, 13, 12, 11, 28, 17, 12, 11, 10, 9, 12, 9, 8, 19, 16, 16, 23, 21, 21, 16, 7, 6, 29, 28, 28, 24, 11, 4, 29, 25, 22, 27, 19, 17, 13, 12, 11, 28, 24, 15, 18, 16, 10, 29, 28, 28, 14, 11, 7, 16, 9, 2, 15, 13, 10, 27, 18, 13, 24, 16, 1, 24, 23, 21, 20, 12, 11, 25, 22, 21, 19, 15, 5, 18, 14, 7, 26, 23, 20, 27, 15, 10, 20, 17, 15, 22, 21, 14, 23, 23, 17, 14, 10, 4, 18, 16, 15, 21, 16, 12, 3, 3, 3, 22, 15, 3, 20, 12, 7, 22, 14, 6, 27, 26, 24, 18, 14, 14
 |21, 13, 4, 24, 20, 17, 26, 24, 19, 29, 22, 18, 12, 6, 6, 24, 17, 15, 17, 17, 11, 29, 23, 16, 29, 27, 27, 26, 13, 7, 3, 2, 2, 12, 10, 9, 26, 24, 22, 19, 19, 19, 9, 6, 2, 8, 6, 6, 22, 21, 12, 16, 14, 13, 23, 16, 6, 26, 24, 18, 11, 11, 11, 19, 17, 16, 23, 20, 20, 13, 7, 6, 15, 13, 13, 27, 23, 23, 29, 11, 4, 22, 15, 8, 12, 10, 9, 21, 19, 11, 21, 20, 20, 17, 16, 15, 12, 11, 11, 24, 16, 5, 14, 11, 11, 11, 10, 8, 13, 13, 13, 17, 15, 12, 7, 7, 7, 13, 7, 7, 21, 18, 16, 18, 15, 5, 26, 21, 18, 13, 10, 10, 23, 20, 19, 6, 2, 1, 22, 18, 11, 20, 19, 10, 26, 26, 22, 13, 10, 8, 19, 12, 2, 13, 11, 10, 21, 21, 16, 19, 15, 9, 25, 12, 11, 24, 21, 18, 30, 20, 12, 26, 23, 21, 6, 5, 5, 7, 6, 1, 25, 18, 17, 18, 18, 17, 9, 8, 5, 20, 17, 13, 15, 14, 10, 23, 19, 8, 29, 29, 29, 19, 19, 16, 11, 10, 10, 10, 7, 3, 21, 18, 14, 25, 21, 18, 11, 8, 7, 13, 10, 7, 12, 10, 6, 26, 22, 21, 26, 21, 18, 24, 20, 19, 23, 13, 10, 24, 20, 14, 28, 19, 18, 26, 25, 24, 13, 12, 12, 12, 6, 6, 23, 11, 7, 11, 6, 4, 23, 20, 9, 20, 17, 16, 29, 21, 11, 29, 26, 25, 27, 23, 20, 7, 6, 5, 27, 23, 15, 7, 6, 5, 26, 24, 24, 14, 14, 11, 15, 13, 10, 15, 15, 15, 27, 17, 11, 9, 7, 5
 |16, 12, 10, 29, 28, 27, 19, 17, 15, 14, 11, 10, 5, 4, 3, 19, 17, 5, 27, 25, 22, 18, 17, 17, 27, 20, 17, 16, 10, 6, 29, 25, 25, 24, 23, 23, 15, 13, 11, 12, 8, 5, 22, 10, 5, 18, 14, 9, 20, 17, 7, 23, 22, 22, 23, 17, 14, 10, 6, 4, 23, 20, 17, 24, 20, 14, 21, 17, 17, 26, 24, 22, 22, 21, 21, 4, 4, 2, 26, 23, 22, 15, 12, 5, 28, 21, 19, 20, 13, 7, 17, 17, 16, 12, 10, 8, 30, 26, 26, 26, 24, 21, 14, 8, 5, 12, 10, 7, 23, 23, 23, 28, 26, 24, 21, 12, 6, 21, 15, 10, 24, 24, 21, 22, 21, 21, 26, 24, 21, 13, 7, 4, 13, 13, 13, 21, 20, 19, 4, 3, 3, 21, 10, 2, 22, 21, 18, 16, 15, 15, 15, 13, 9, 26, 24, 22, 23, 21, 20, 28, 27, 26, 16, 13, 11, 19, 11, 5, 27, 27, 27, 24, 18, 13, 12, 9, 6, 12, 9, 3, 26, 20, 14, 22, 15, 3, 15, 9, 9, 8, 8, 8, 11, 7, 4, 6, 5, 3, 15, 9, 6, 28, 28, 26, 20, 19, 12, 24, 23, 23, 24, 18, 17, 16, 10, 8, 22, 19, 14, 17, 16, 16, 14, 10, 9, 26, 26, 23, 8, 7, 6, 20, 14, 10, 27, 25, 23, 23, 19, 18, 18, 13, 7, 30, 27, 26, 20, 15, 10, 26, 22, 12, 22, 22, 22, 25, 20, 4, 30, 29, 28, 29, 29, 29, 18, 16, 15, 18, 17, 15, 5, 3, 3, 22, 22, 20, 15, 9, 8, 26, 24, 22, 15, 12, 4, 29, 26, 24, 30, 30, 30, 26, 17, 8, 12, 12, 12, 19, 13, 10
 |26, 22, 20, 23, 18, 8, 28, 26, 24, 18, 15, 7, 24, 19, 18, 25, 23, 20, 14, 8, 4, 25, 22, 21, 26, 19, 13, 28, 27, 27, 28, 13, 11, 28, 19, 15, 12, 6, 4, 16, 15, 15, 7, 6, 5, 21, 20, 19, 19, 18, 12, 7, 3, 2, 26, 19, 17, 16, 14, 14, 26, 24, 23, 25, 23, 15, 14, 10, 8, 20, 15, 9, 22, 21, 20, 21, 21, 16, 26, 10, 1, 16, 12, 11, 21, 15, 8, 27, 21, 20, 16, 14, 14, 26, 24, 22, 29, 18, 12, 27, 26, 25, 24, 22, 16, 24, 24, 21, 12, 9, 9, 16, 15, 14, 21, 20, 19, 14, 9, 9, 14, 11, 6, 21, 16, 10, 14, 11, 11, 24, 17, 9, 11, 5, 2, 26, 20, 13, 23, 19, 15, 14, 9, 6, 12, 11, 10, 23, 22, 22, 18, 17, 16, 19, 16, 7, 18, 18, 17, 16, 14, 12, 10, 10, 6, 12, 11, 10, 12, 9, 5, 6, 3, 2, 26, 19, 15, 26, 25, 21, 10, 5, 2, 28, 22, 16, 21, 13, 5, 10, 8, 6, 11, 10, 7, 22, 21, 18, 12, 8, 5, 15, 9, 7, 27, 27, 27, 17, 10, 2, 11, 9, 6, 15, 15, 15, 2, 2, 1, 24, 16, 13, 6, 4, 2, 19, 17, 17, 27, 27, 27, 26, 23, 21, 15, 14, 14, 24, 21, 20, 28, 25, 24, 13, 12, 11, 25, 23, 20, 12, 12, 6, 16, 13, 8, 8, 7, 5, 24, 24, 16, 12, 12, 10, 15, 11, 4, 28, 23, 23, 27, 18, 16, 5, 4, 4, 28, 24, 18, 19, 13, 13, 13, 9, 7, 16, 11, 7, 18, 14, 11, 10, 9, 9, 24, 15, 5, 4, 2, 2
 |23, 22, 22, 12, 7, 6, 16, 15, 15, 18, 15, 8, 6, 3, 1, 26, 24, 20, 18, 16, 10, 15, 14, 11, 23, 22, 21, 15, 14, 13, 16, 12, 6, 23, 20, 19, 21, 18, 16, 13, 13, 13, 14, 11, 9, 29, 17, 12, 20, 16, 4, 25, 22, 18, 29, 21, 12, 28, 20, 15, 20, 14, 10, 5, 4, 3, 13, 10, 5, 4, 2, 2, 9, 9, 9, 10, 9, 9, 21, 19, 13, 21, 18, 18, 20, 17, 15, 25, 22, 21, 26, 19, 15, 17, 10, 10, 29, 25, 23, 26, 22, 16, 19, 17, 15, 3, 3, 3, 24, 24, 22, 25, 25, 24, 22, 19, 18, 17, 15, 15, 3, 2, 2, 16, 14, 11, 21, 16, 9, 22, 15, 12, 26, 24, 21, 25, 21, 16, 25, 24, 15, 4, 4, 2, 15, 13, 6, 20, 20, 20, 6, 3, 3, 25, 20, 17, 18, 11, 9, 23, 23, 22, 20, 16, 14, 24, 12, 6, 10, 7, 6, 25, 12, 9, 14, 14, 14, 13, 10, 10, 18, 15, 13, 6, 6, 6, 27, 26, 25, 19, 14, 14, 23, 22, 22, 16, 13, 11, 25, 20, 20, 14, 9, 1, 18, 13, 7, 18, 11, 8, 23, 16, 12, 14, 13, 4, 15, 11, 9, 7, 5, 5, 20, 17, 15, 8, 8, 7, 16, 12, 11, 23, 19, 18, 8, 7, 1, 11, 11, 6, 25, 24, 24, 20, 17, 12, 9, 8, 8, 29, 28, 28, 24, 20, 18, 19, 13, 10, 28, 21, 20, 18, 15, 11, 14, 11, 5, 10, 10, 10, 20, 15, 5, 15, 11, 6, 25, 22, 21, 18, 13, 9, 5, 3, 2, 9, 9, 9, 22, 21, 18, 8, 7, 7, 28, 26, 24, 16, 15, 12
 |22, 12, 9, 27, 19, 19, 24, 20, 13, 26, 18, 4, 26, 25, 25, 25, 23, 18, 24, 10, 8, 20, 17, 16, 23, 17, 15, 3, 2, 1, 17, 13, 2, 25, 14, 13, 20, 13, 7, 21, 14, 6, 25, 22, 20, 21, 16, 12, 25, 24, 24, 14, 11, 6, 16, 16, 10, 19, 18, 17, 12, 9, 3, 17, 15, 13, 5, 5, 5, 19, 12, 10, 21, 13, 7, 8, 5, 3, 23, 17, 8, 18, 13, 9, 24, 10, 9, 27, 16, 6, 17, 16, 13, 19, 19, 14, 26, 21, 17, 22, 20, 19, 6, 3, 3, 17, 11, 3, 24, 16, 10, 12, 8, 3, 26, 19, 8, 18, 17, 11, 20, 18, 15, 10, 9, 8, 19, 12, 5, 21, 21, 19, 22, 14, 5, 6, 3, 1, 24, 23, 21, 10, 8, 5, 12, 9, 4, 17, 17, 17, 17, 16, 15, 12, 7, 4, 17, 16, 15, 13, 10, 5, 27, 20, 17, 18, 16, 13, 15, 15, 13, 22, 21, 9, 28, 27, 27, 9, 6, 5, 16, 14, 14, 25, 21, 13, 20, 19, 17, 25, 22, 21, 9, 7, 7, 24, 19, 15, 27, 22, 21, 27, 25, 22, 12, 5, 2, 15, 14, 12, 6, 5, 4, 19, 17, 14, 21, 20, 18, 15, 11, 7, 11, 6, 4, 22, 18, 13, 15, 10, 8, 24, 19, 17, 25, 23, 22, 12, 10, 7, 12, 10, 7, 19, 12, 10, 10, 8, 8, 15, 14, 12, 29, 23, 17, 25, 18, 18, 21, 19, 18, 30, 18, 18, 14, 10, 6, 19, 18, 10, 18, 13, 11, 19, 19, 19, 29, 28, 25, 24, 11, 2, 16, 12, 12, 19, 13, 10, 18, 17, 16, 22, 20, 20, 23, 22, 21, 22, 11, 1|];